c Reduced graph for r13 generated by Cyril Grelier
p edge 217 2449
e 1 2
e 1 3
e 1 5
e 1 7
e 1 8
e 1 9
e 1 14
e 1 17
e 1 20
e 1 24
e 1 30
e 1 31
e 1 32
e 1 50
e 1 54
e 1 61
e 1 62
e 1 63
e 1 88
e 1 89
e 1 91
e 1 97
e 1 107
e 1 116
e 1 125
e 1 143
e 1 154
e 2 3
e 2 7
e 2 8
e 2 9
e 2 18
e 2 21
e 2 25
e 2 28
e 2 30
e 2 31
e 2 32
e 2 45
e 2 51
e 2 55
e 2 61
e 2 62
e 2 63
e 2 88
e 2 89
e 2 92
e 2 98
e 2 125
e 2 133
e 2 137
e 2 144
e 2 155
e 3 6
e 3 7
e 3 8
e 3 9
e 3 15
e 3 19
e 3 22
e 3 26
e 3 29
e 3 30
e 3 31
e 3 32
e 3 46
e 3 52
e 3 56
e 3 61
e 3 62
e 3 63
e 3 88
e 3 89
e 3 93
e 3 108
e 3 125
e 3 134
e 3 156
e 4 5
e 4 6
e 4 10
e 4 11
e 4 12
e 4 13
e 4 16
e 4 23
e 4 27
e 4 33
e 4 34
e 4 35
e 4 36
e 4 37
e 4 44
e 4 53
e 4 64
e 4 90
e 4 94
e 4 95
e 4 96
e 4 106
e 4 115
e 4 127
e 4 132
e 4 142
e 4 153
e 5 6
e 5 10
e 5 11
e 5 12
e 5 14
e 5 17
e 5 20
e 5 24
e 5 33
e 5 34
e 5 35
e 5 36
e 5 37
e 5 50
e 5 54
e 5 64
e 5 91
e 5 94
e 5 95
e 5 97
e 5 107
e 5 116
e 5 127
e 5 143
e 5 154
e 6 10
e 6 11
e 6 12
e 6 15
e 6 19
e 6 22
e 6 26
e 6 29
e 6 33
e 6 34
e 6 35
e 6 36
e 6 37
e 6 46
e 6 52
e 6 56
e 6 64
e 6 93
e 6 94
e 6 95
e 6 108
e 6 127
e 6 134
e 6 156
e 7 8
e 7 9
e 7 10
e 7 30
e 7 31
e 7 32
e 7 38
e 7 41
e 7 47
e 7 57
e 7 61
e 7 62
e 7 63
e 7 77
e 7 88
e 7 89
e 7 125
e 7 126
e 7 128
e 7 141
e 7 148
e 7 168
e 7 172
e 8 9
e 8 11
e 8 30
e 8 31
e 8 32
e 8 39
e 8 42
e 8 48
e 8 58
e 8 61
e 8 62
e 8 63
e 8 71
e 8 78
e 8 80
e 8 88
e 8 89
e 8 125
e 8 129
e 8 149
e 8 169
e 8 183
e 9 12
e 9 30
e 9 31
e 9 32
e 9 40
e 9 43
e 9 49
e 9 59
e 9 60
e 9 61
e 9 62
e 9 63
e 9 72
e 9 79
e 9 88
e 9 89
e 9 125
e 9 150
e 9 170
e 9 173
e 9 184
e 10 11
e 10 12
e 10 33
e 10 34
e 10 35
e 10 36
e 10 37
e 10 38
e 10 41
e 10 47
e 10 57
e 10 64
e 10 77
e 10 94
e 10 95
e 10 126
e 10 127
e 10 128
e 10 141
e 10 148
e 10 168
e 10 172
e 11 12
e 11 33
e 11 34
e 11 35
e 11 36
e 11 37
e 11 39
e 11 42
e 11 48
e 11 58
e 11 64
e 11 71
e 11 78
e 11 80
e 11 94
e 11 95
e 11 127
e 11 129
e 11 149
e 11 169
e 11 183
e 12 33
e 12 34
e 12 35
e 12 36
e 12 37
e 12 40
e 12 43
e 12 49
e 12 59
e 12 60
e 12 64
e 12 72
e 12 79
e 12 94
e 12 95
e 12 127
e 12 150
e 12 170
e 12 173
e 12 184
e 13 14
e 13 15
e 13 16
e 13 23
e 13 27
e 13 38
e 13 39
e 13 40
e 13 44
e 13 53
e 13 65
e 13 66
e 13 67
e 13 68
e 13 90
e 13 96
e 13 99
e 13 106
e 13 115
e 13 130
e 13 131
e 13 132
e 13 142
e 13 153
e 13 167
e 14 15
e 14 17
e 14 20
e 14 24
e 14 38
e 14 39
e 14 40
e 14 50
e 14 54
e 14 65
e 14 66
e 14 67
e 14 68
e 14 91
e 14 97
e 14 99
e 14 107
e 14 116
e 14 130
e 14 131
e 14 143
e 14 154
e 14 167
e 15 19
e 15 22
e 15 26
e 15 29
e 15 38
e 15 39
e 15 40
e 15 46
e 15 52
e 15 56
e 15 65
e 15 66
e 15 67
e 15 68
e 15 93
e 15 99
e 15 108
e 15 130
e 15 131
e 15 134
e 15 156
e 15 167
e 16 17
e 16 18
e 16 19
e 16 23
e 16 27
e 16 41
e 16 42
e 16 43
e 16 44
e 16 53
e 16 69
e 16 70
e 16 90
e 16 96
e 16 100
e 16 101
e 16 106
e 16 115
e 16 132
e 16 135
e 16 136
e 16 142
e 16 153
e 16 171
e 17 18
e 17 19
e 17 20
e 17 24
e 17 41
e 17 42
e 17 43
e 17 50
e 17 54
e 17 69
e 17 70
e 17 91
e 17 97
e 17 100
e 17 101
e 17 107
e 17 116
e 17 135
e 17 136
e 17 143
e 17 154
e 17 171
e 18 19
e 18 21
e 18 25
e 18 28
e 18 41
e 18 42
e 18 43
e 18 45
e 18 51
e 18 55
e 18 69
e 18 70
e 18 92
e 18 98
e 18 100
e 18 101
e 18 133
e 18 135
e 18 136
e 18 137
e 18 144
e 18 155
e 18 171
e 19 22
e 19 26
e 19 29
e 19 41
e 19 42
e 19 43
e 19 46
e 19 52
e 19 56
e 19 69
e 19 70
e 19 93
e 19 100
e 19 101
e 19 108
e 19 134
e 19 135
e 19 136
e 19 156
e 19 171
e 20 21
e 20 22
e 20 24
e 20 47
e 20 48
e 20 49
e 20 50
e 20 54
e 20 73
e 20 74
e 20 75
e 20 76
e 20 91
e 20 97
e 20 107
e 20 109
e 20 110
e 20 111
e 20 116
e 20 143
e 20 145
e 20 154
e 21 22
e 21 25
e 21 28
e 21 45
e 21 47
e 21 48
e 21 49
e 21 51
e 21 55
e 21 73
e 21 74
e 21 75
e 21 76
e 21 92
e 21 98
e 21 109
e 21 110
e 21 111
e 21 133
e 21 137
e 21 144
e 21 145
e 21 155
e 22 26
e 22 29
e 22 46
e 22 47
e 22 48
e 22 49
e 22 52
e 22 56
e 22 73
e 22 74
e 22 75
e 22 76
e 22 93
e 22 108
e 22 109
e 22 110
e 22 111
e 22 134
e 22 145
e 22 156
e 23 24
e 23 25
e 23 26
e 23 27
e 23 44
e 23 53
e 23 57
e 23 58
e 23 59
e 23 81
e 23 82
e 23 90
e 23 96
e 23 106
e 23 115
e 23 121
e 23 122
e 23 132
e 23 142
e 23 153
e 23 157
e 23 185
e 24 25
e 24 26
e 24 50
e 24 54
e 24 57
e 24 58
e 24 59
e 24 81
e 24 82
e 24 91
e 24 97
e 24 107
e 24 116
e 24 121
e 24 122
e 24 143
e 24 154
e 24 157
e 24 185
e 25 26
e 25 28
e 25 45
e 25 51
e 25 55
e 25 57
e 25 58
e 25 59
e 25 81
e 25 82
e 25 92
e 25 98
e 25 121
e 25 122
e 25 133
e 25 137
e 25 144
e 25 155
e 25 157
e 25 185
e 26 29
e 26 46
e 26 52
e 26 56
e 26 57
e 26 58
e 26 59
e 26 81
e 26 82
e 26 93
e 26 108
e 26 121
e 26 122
e 26 134
e 26 156
e 26 157
e 26 185
e 27 28
e 27 29
e 27 44
e 27 53
e 27 60
e 27 83
e 27 84
e 27 85
e 27 86
e 27 87
e 27 90
e 27 96
e 27 106
e 27 115
e 27 123
e 27 124
e 27 132
e 27 142
e 27 153
e 27 158
e 27 186
e 28 29
e 28 45
e 28 51
e 28 55
e 28 60
e 28 83
e 28 84
e 28 85
e 28 86
e 28 87
e 28 92
e 28 98
e 28 123
e 28 124
e 28 133
e 28 137
e 28 144
e 28 155
e 28 158
e 28 186
e 29 46
e 29 52
e 29 56
e 29 60
e 29 83
e 29 84
e 29 85
e 29 86
e 29 87
e 29 93
e 29 108
e 29 123
e 29 124
e 29 134
e 29 156
e 29 158
e 29 186
e 30 31
e 30 32
e 30 34
e 30 61
e 30 62
e 30 63
e 30 66
e 30 73
e 30 84
e 30 88
e 30 89
e 30 103
e 30 113
e 30 118
e 30 125
e 30 164
e 30 176
e 30 191
e 30 195
e 31 32
e 31 35
e 31 61
e 31 62
e 31 63
e 31 67
e 31 74
e 31 82
e 31 85
e 31 88
e 31 89
e 31 104
e 31 114
e 31 119
e 31 125
e 31 160
e 31 177
e 31 196
e 32 37
e 32 61
e 32 62
e 32 63
e 32 70
e 32 76
e 32 87
e 32 88
e 32 89
e 32 120
e 32 125
e 32 162
e 32 166
e 32 179
e 32 181
e 32 189
e 32 198
e 33 34
e 33 35
e 33 36
e 33 37
e 33 64
e 33 65
e 33 69
e 33 81
e 33 83
e 33 94
e 33 95
e 33 102
e 33 112
e 33 117
e 33 127
e 33 159
e 33 163
e 33 175
e 33 190
e 34 35
e 34 36
e 34 37
e 34 64
e 34 66
e 34 73
e 34 84
e 34 94
e 34 95
e 34 103
e 34 113
e 34 118
e 34 127
e 34 164
e 34 176
e 34 191
e 34 195
e 35 36
e 35 37
e 35 64
e 35 67
e 35 74
e 35 82
e 35 85
e 35 94
e 35 95
e 35 104
e 35 114
e 35 119
e 35 127
e 35 160
e 35 177
e 35 196
e 36 37
e 36 64
e 36 68
e 36 75
e 36 86
e 36 94
e 36 95
e 36 105
e 36 127
e 36 161
e 36 165
e 36 178
e 36 180
e 36 192
e 36 197
e 36 202
e 37 64
e 37 70
e 37 76
e 37 87
e 37 94
e 37 95
e 37 120
e 37 127
e 37 162
e 37 166
e 37 179
e 37 181
e 37 189
e 37 198
e 38 39
e 38 40
e 38 41
e 38 47
e 38 57
e 38 65
e 38 66
e 38 67
e 38 68
e 38 77
e 38 99
e 38 126
e 38 128
e 38 130
e 38 131
e 38 141
e 38 148
e 38 167
e 38 168
e 38 172
e 39 40
e 39 42
e 39 48
e 39 58
e 39 65
e 39 66
e 39 67
e 39 68
e 39 71
e 39 78
e 39 80
e 39 99
e 39 129
e 39 130
e 39 131
e 39 149
e 39 167
e 39 169
e 39 183
e 40 43
e 40 49
e 40 59
e 40 60
e 40 65
e 40 66
e 40 67
e 40 68
e 40 72
e 40 79
e 40 99
e 40 130
e 40 131
e 40 150
e 40 167
e 40 170
e 40 173
e 40 184
e 41 42
e 41 43
e 41 47
e 41 57
e 41 69
e 41 70
e 41 77
e 41 100
e 41 101
e 41 126
e 41 128
e 41 135
e 41 136
e 41 141
e 41 148
e 41 168
e 41 171
e 41 172
e 42 43
e 42 48
e 42 58
e 42 69
e 42 70
e 42 71
e 42 78
e 42 80
e 42 100
e 42 101
e 42 129
e 42 135
e 42 136
e 42 149
e 42 169
e 42 171
e 42 183
e 43 49
e 43 59
e 43 60
e 43 69
e 43 70
e 43 72
e 43 79
e 43 100
e 43 101
e 43 135
e 43 136
e 43 150
e 43 170
e 43 171
e 43 173
e 43 184
e 44 45
e 44 46
e 44 53
e 44 71
e 44 72
e 44 90
e 44 96
e 44 102
e 44 103
e 44 104
e 44 105
e 44 106
e 44 115
e 44 132
e 44 138
e 44 139
e 44 140
e 44 142
e 44 153
e 44 174
e 45 46
e 45 51
e 45 55
e 45 71
e 45 72
e 45 92
e 45 98
e 45 102
e 45 103
e 45 104
e 45 105
e 45 133
e 45 137
e 45 138
e 45 139
e 45 140
e 45 144
e 45 155
e 45 174
e 46 52
e 46 56
e 46 71
e 46 72
e 46 93
e 46 102
e 46 103
e 46 104
e 46 105
e 46 108
e 46 134
e 46 138
e 46 139
e 46 140
e 46 156
e 46 174
e 47 48
e 47 49
e 47 57
e 47 73
e 47 74
e 47 75
e 47 76
e 47 77
e 47 109
e 47 110
e 47 111
e 47 126
e 47 128
e 47 141
e 47 145
e 47 148
e 47 168
e 47 172
e 48 49
e 48 58
e 48 71
e 48 73
e 48 74
e 48 75
e 48 76
e 48 78
e 48 80
e 48 109
e 48 110
e 48 111
e 48 129
e 48 145
e 48 149
e 48 169
e 48 183
e 49 59
e 49 60
e 49 72
e 49 73
e 49 74
e 49 75
e 49 76
e 49 79
e 49 109
e 49 110
e 49 111
e 49 145
e 49 150
e 49 170
e 49 173
e 49 184
e 50 51
e 50 52
e 50 54
e 50 77
e 50 78
e 50 79
e 50 91
e 50 97
e 50 107
e 50 112
e 50 113
e 50 114
e 50 116
e 50 143
e 50 146
e 50 147
e 50 154
e 50 199
e 51 52
e 51 55
e 51 77
e 51 78
e 51 79
e 51 92
e 51 98
e 51 112
e 51 113
e 51 114
e 51 133
e 51 137
e 51 144
e 51 146
e 51 147
e 51 155
e 51 199
e 52 56
e 52 77
e 52 78
e 52 79
e 52 93
e 52 108
e 52 112
e 52 113
e 52 114
e 52 134
e 52 146
e 52 147
e 52 156
e 52 199
e 53 54
e 53 55
e 53 56
e 53 80
e 53 90
e 53 96
e 53 106
e 53 115
e 53 117
e 53 118
e 53 119
e 53 120
e 53 132
e 53 142
e 53 151
e 53 152
e 53 153
e 53 182
e 54 55
e 54 56
e 54 80
e 54 91
e 54 97
e 54 107
e 54 116
e 54 117
e 54 118
e 54 119
e 54 120
e 54 143
e 54 151
e 54 152
e 54 154
e 54 182
e 55 56
e 55 80
e 55 92
e 55 98
e 55 117
e 55 118
e 55 119
e 55 120
e 55 133
e 55 137
e 55 144
e 55 151
e 55 152
e 55 155
e 55 182
e 56 80
e 56 93
e 56 108
e 56 117
e 56 118
e 56 119
e 56 120
e 56 134
e 56 151
e 56 152
e 56 156
e 56 182
e 57 58
e 57 59
e 57 77
e 57 81
e 57 82
e 57 121
e 57 122
e 57 126
e 57 128
e 57 141
e 57 148
e 57 157
e 57 168
e 57 172
e 57 185
e 58 59
e 58 71
e 58 78
e 58 80
e 58 81
e 58 82
e 58 121
e 58 122
e 58 129
e 58 149
e 58 157
e 58 169
e 58 183
e 58 185
e 59 60
e 59 72
e 59 79
e 59 81
e 59 82
e 59 121
e 59 122
e 59 150
e 59 157
e 59 170
e 59 173
e 59 184
e 59 185
e 60 72
e 60 79
e 60 83
e 60 84
e 60 85
e 60 86
e 60 87
e 60 123
e 60 124
e 60 150
e 60 158
e 60 170
e 60 173
e 60 184
e 60 186
e 61 62
e 61 63
e 61 64
e 61 88
e 61 89
e 61 100
e 61 109
e 61 121
e 61 125
e 61 138
e 61 187
e 61 188
e 61 200
e 61 204
e 61 205
e 62 63
e 62 88
e 62 89
e 62 99
e 62 101
e 62 110
e 62 123
e 62 125
e 62 139
e 62 146
e 62 151
e 62 193
e 62 206
e 62 209
e 63 88
e 63 89
e 63 111
e 63 122
e 63 124
e 63 125
e 63 140
e 63 147
e 63 152
e 63 194
e 63 201
e 63 207
e 63 210
e 64 94
e 64 95
e 64 100
e 64 109
e 64 121
e 64 127
e 64 138
e 64 187
e 64 188
e 64 200
e 64 204
e 64 205
e 65 66
e 65 67
e 65 68
e 65 69
e 65 81
e 65 83
e 65 99
e 65 102
e 65 112
e 65 117
e 65 130
e 65 131
e 65 159
e 65 163
e 65 167
e 65 175
e 65 190
e 66 67
e 66 68
e 66 73
e 66 84
e 66 99
e 66 103
e 66 113
e 66 118
e 66 130
e 66 131
e 66 164
e 66 167
e 66 176
e 66 191
e 66 195
e 67 68
e 67 74
e 67 82
e 67 85
e 67 99
e 67 104
e 67 114
e 67 119
e 67 130
e 67 131
e 67 160
e 67 167
e 67 177
e 67 196
e 68 75
e 68 86
e 68 99
e 68 105
e 68 130
e 68 131
e 68 161
e 68 165
e 68 167
e 68 178
e 68 180
e 68 192
e 68 197
e 68 202
e 69 70
e 69 81
e 69 83
e 69 100
e 69 101
e 69 102
e 69 112
e 69 117
e 69 135
e 69 136
e 69 159
e 69 163
e 69 171
e 69 175
e 69 190
e 70 76
e 70 87
e 70 100
e 70 101
e 70 120
e 70 135
e 70 136
e 70 162
e 70 166
e 70 171
e 70 179
e 70 181
e 70 189
e 70 198
e 71 72
e 71 78
e 71 80
e 71 102
e 71 103
e 71 104
e 71 105
e 71 129
e 71 138
e 71 139
e 71 140
e 71 149
e 71 169
e 71 174
e 71 183
e 72 79
e 72 102
e 72 103
e 72 104
e 72 105
e 72 138
e 72 139
e 72 140
e 72 150
e 72 170
e 72 173
e 72 174
e 72 184
e 73 74
e 73 75
e 73 76
e 73 84
e 73 103
e 73 109
e 73 110
e 73 111
e 73 113
e 73 118
e 73 145
e 73 164
e 73 176
e 73 191
e 73 195
e 74 75
e 74 76
e 74 82
e 74 85
e 74 104
e 74 109
e 74 110
e 74 111
e 74 114
e 74 119
e 74 145
e 74 160
e 74 177
e 74 196
e 75 76
e 75 86
e 75 105
e 75 109
e 75 110
e 75 111
e 75 145
e 75 161
e 75 165
e 75 178
e 75 180
e 75 192
e 75 197
e 75 202
e 76 87
e 76 109
e 76 110
e 76 111
e 76 120
e 76 145
e 76 162
e 76 166
e 76 179
e 76 181
e 76 189
e 76 198
e 77 78
e 77 79
e 77 112
e 77 113
e 77 114
e 77 126
e 77 128
e 77 141
e 77 146
e 77 147
e 77 148
e 77 168
e 77 172
e 77 199
e 78 79
e 78 80
e 78 112
e 78 113
e 78 114
e 78 129
e 78 146
e 78 147
e 78 149
e 78 169
e 78 183
e 78 199
e 79 112
e 79 113
e 79 114
e 79 146
e 79 147
e 79 150
e 79 170
e 79 173
e 79 184
e 79 199
e 80 117
e 80 118
e 80 119
e 80 120
e 80 129
e 80 149
e 80 151
e 80 152
e 80 169
e 80 182
e 80 183
e 81 82
e 81 83
e 81 102
e 81 112
e 81 117
e 81 121
e 81 122
e 81 157
e 81 159
e 81 163
e 81 175
e 81 185
e 81 190
e 82 85
e 82 104
e 82 114
e 82 119
e 82 121
e 82 122
e 82 157
e 82 160
e 82 177
e 82 185
e 82 196
e 83 84
e 83 85
e 83 86
e 83 87
e 83 102
e 83 112
e 83 117
e 83 123
e 83 124
e 83 158
e 83 159
e 83 163
e 83 175
e 83 186
e 83 190
e 84 85
e 84 86
e 84 87
e 84 103
e 84 113
e 84 118
e 84 123
e 84 124
e 84 158
e 84 164
e 84 176
e 84 186
e 84 191
e 84 195
e 85 86
e 85 87
e 85 104
e 85 114
e 85 119
e 85 123
e 85 124
e 85 158
e 85 160
e 85 177
e 85 186
e 85 196
e 86 87
e 86 105
e 86 123
e 86 124
e 86 158
e 86 161
e 86 165
e 86 178
e 86 180
e 86 186
e 86 192
e 86 197
e 86 202
e 87 120
e 87 123
e 87 124
e 87 158
e 87 162
e 87 166
e 87 179
e 87 181
e 87 186
e 87 189
e 87 198
e 88 89
e 88 94
e 88 125
e 88 130
e 88 135
e 88 145
e 88 157
e 88 158
e 88 208
e 88 212
e 88 214
e 89 95
e 89 125
e 89 131
e 89 136
e 89 174
e 89 182
e 89 203
e 89 213
e 89 215
e 89 216
e 90 91
e 90 92
e 90 93
e 90 96
e 90 106
e 90 115
e 90 126
e 90 132
e 90 142
e 90 153
e 90 159
e 90 160
e 90 161
e 90 162
e 90 187
e 90 211
e 91 92
e 91 93
e 91 97
e 91 107
e 91 116
e 91 126
e 91 143
e 91 154
e 91 159
e 91 160
e 91 161
e 91 162
e 91 187
e 91 211
e 92 93
e 92 98
e 92 126
e 92 133
e 92 137
e 92 144
e 92 155
e 92 159
e 92 160
e 92 161
e 92 162
e 92 187
e 92 211
e 93 108
e 93 126
e 93 134
e 93 156
e 93 159
e 93 160
e 93 161
e 93 162
e 93 187
e 93 211
e 94 95
e 94 127
e 94 130
e 94 135
e 94 145
e 94 157
e 94 158
e 94 208
e 94 212
e 94 214
e 95 127
e 95 131
e 95 136
e 95 174
e 95 182
e 95 203
e 95 213
e 95 215
e 95 216
e 96 97
e 96 98
e 96 106
e 96 115
e 96 128
e 96 129
e 96 132
e 96 142
e 96 153
e 96 163
e 96 164
e 96 165
e 96 166
e 96 188
e 96 203
e 97 98
e 97 107
e 97 116
e 97 128
e 97 129
e 97 143
e 97 154
e 97 163
e 97 164
e 97 165
e 97 166
e 97 188
e 97 203
e 98 128
e 98 129
e 98 133
e 98 137
e 98 144
e 98 155
e 98 163
e 98 164
e 98 165
e 98 166
e 98 188
e 98 203
e 99 101
e 99 110
e 99 123
e 99 130
e 99 131
e 99 139
e 99 146
e 99 151
e 99 167
e 99 193
e 99 206
e 99 209
e 100 101
e 100 109
e 100 121
e 100 135
e 100 136
e 100 138
e 100 171
e 100 187
e 100 188
e 100 200
e 100 204
e 100 205
e 101 110
e 101 123
e 101 135
e 101 136
e 101 139
e 101 146
e 101 151
e 101 171
e 101 193
e 101 206
e 101 209
e 102 103
e 102 104
e 102 105
e 102 112
e 102 117
e 102 138
e 102 139
e 102 140
e 102 159
e 102 163
e 102 174
e 102 175
e 102 190
e 103 104
e 103 105
e 103 113
e 103 118
e 103 138
e 103 139
e 103 140
e 103 164
e 103 174
e 103 176
e 103 191
e 103 195
e 104 105
e 104 114
e 104 119
e 104 138
e 104 139
e 104 140
e 104 160
e 104 174
e 104 177
e 104 196
e 105 138
e 105 139
e 105 140
e 105 161
e 105 165
e 105 174
e 105 178
e 105 180
e 105 192
e 105 197
e 105 202
e 106 107
e 106 108
e 106 115
e 106 132
e 106 141
e 106 142
e 106 153
e 106 175
e 106 176
e 106 177
e 106 178
e 106 179
e 106 193
e 106 194
e 107 108
e 107 116
e 107 141
e 107 143
e 107 154
e 107 175
e 107 176
e 107 177
e 107 178
e 107 179
e 107 193
e 107 194
e 108 134
e 108 141
e 108 156
e 108 175
e 108 176
e 108 177
e 108 178
e 108 179
e 108 193
e 108 194
e 109 110
e 109 111
e 109 121
e 109 138
e 109 145
e 109 187
e 109 188
e 109 200
e 109 204
e 109 205
e 110 111
e 110 123
e 110 139
e 110 145
e 110 146
e 110 151
e 110 193
e 110 206
e 110 209
e 111 122
e 111 124
e 111 140
e 111 145
e 111 147
e 111 152
e 111 194
e 111 201
e 111 207
e 111 210
e 112 113
e 112 114
e 112 117
e 112 146
e 112 147
e 112 159
e 112 163
e 112 175
e 112 190
e 112 199
e 113 114
e 113 118
e 113 146
e 113 147
e 113 164
e 113 176
e 113 191
e 113 195
e 113 199
e 114 119
e 114 146
e 114 147
e 114 160
e 114 177
e 114 196
e 114 199
e 115 116
e 115 132
e 115 142
e 115 148
e 115 149
e 115 150
e 115 153
e 115 180
e 115 181
e 115 200
e 115 201
e 115 208
e 116 143
e 116 148
e 116 149
e 116 150
e 116 154
e 116 180
e 116 181
e 116 200
e 116 201
e 116 208
e 117 118
e 117 119
e 117 120
e 117 151
e 117 152
e 117 159
e 117 163
e 117 175
e 117 182
e 117 190
e 118 119
e 118 120
e 118 151
e 118 152
e 118 164
e 118 176
e 118 182
e 118 191
e 118 195
e 119 120
e 119 151
e 119 152
e 119 160
e 119 177
e 119 182
e 119 196
e 120 151
e 120 152
e 120 162
e 120 166
e 120 179
e 120 181
e 120 182
e 120 189
e 120 198
e 121 122
e 121 138
e 121 157
e 121 185
e 121 187
e 121 188
e 121 200
e 121 204
e 121 205
e 122 124
e 122 140
e 122 147
e 122 152
e 122 157
e 122 185
e 122 194
e 122 201
e 122 207
e 122 210
e 123 124
e 123 139
e 123 146
e 123 151
e 123 158
e 123 186
e 123 193
e 123 206
e 123 209
e 124 140
e 124 147
e 124 152
e 124 158
e 124 186
e 124 194
e 124 201
e 124 207
e 124 210
e 125 127
e 125 167
e 125 171
e 125 185
e 125 186
e 125 199
e 125 211
e 125 217
e 126 128
e 126 141
e 126 148
e 126 159
e 126 160
e 126 161
e 126 162
e 126 168
e 126 172
e 126 187
e 126 211
e 127 167
e 127 171
e 127 185
e 127 186
e 127 199
e 127 211
e 127 217
e 128 129
e 128 141
e 128 148
e 128 163
e 128 164
e 128 165
e 128 166
e 128 168
e 128 172
e 128 188
e 128 203
e 129 149
e 129 163
e 129 164
e 129 165
e 129 166
e 129 169
e 129 183
e 129 188
e 129 203
e 130 131
e 130 135
e 130 145
e 130 157
e 130 158
e 130 167
e 130 208
e 130 212
e 130 214
e 131 136
e 131 167
e 131 174
e 131 182
e 131 203
e 131 213
e 131 215
e 131 216
e 132 133
e 132 134
e 132 142
e 132 153
e 132 168
e 132 169
e 132 170
e 132 189
e 132 204
e 132 212
e 132 213
e 133 134
e 133 137
e 133 144
e 133 155
e 133 168
e 133 169
e 133 170
e 133 189
e 133 204
e 133 212
e 133 213
e 134 156
e 134 168
e 134 169
e 134 170
e 134 189
e 134 204
e 134 212
e 134 213
e 135 136
e 135 145
e 135 157
e 135 158
e 135 171
e 135 208
e 135 212
e 135 214
e 136 171
e 136 174
e 136 182
e 136 203
e 136 213
e 136 215
e 136 216
e 137 144
e 137 155
e 137 172
e 137 173
e 137 190
e 137 191
e 137 192
e 137 205
e 137 206
e 137 214
e 137 215
e 138 139
e 138 140
e 138 174
e 138 187
e 138 188
e 138 200
e 138 204
e 138 205
e 139 140
e 139 146
e 139 151
e 139 174
e 139 193
e 139 206
e 139 209
e 140 147
e 140 152
e 140 174
e 140 194
e 140 201
e 140 207
e 140 210
e 141 148
e 141 168
e 141 172
e 141 175
e 141 176
e 141 177
e 141 178
e 141 179
e 141 193
e 141 194
e 142 143
e 142 144
e 142 153
e 142 195
e 142 196
e 142 197
e 142 198
e 142 207
e 142 216
e 142 217
e 143 144
e 143 154
e 143 195
e 143 196
e 143 197
e 143 198
e 143 207
e 143 216
e 143 217
e 144 155
e 144 195
e 144 196
e 144 197
e 144 198
e 144 207
e 144 216
e 144 217
e 145 157
e 145 158
e 145 208
e 145 212
e 145 214
e 146 147
e 146 151
e 146 193
e 146 199
e 146 206
e 146 209
e 147 152
e 147 194
e 147 199
e 147 201
e 147 207
e 147 210
e 148 149
e 148 150
e 148 168
e 148 172
e 148 180
e 148 181
e 148 200
e 148 201
e 148 208
e 149 150
e 149 169
e 149 180
e 149 181
e 149 183
e 149 200
e 149 201
e 149 208
e 150 170
e 150 173
e 150 180
e 150 181
e 150 184
e 150 200
e 150 201
e 150 208
e 151 152
e 151 182
e 151 193
e 151 206
e 151 209
e 152 182
e 152 194
e 152 201
e 152 207
e 152 210
e 153 154
e 153 155
e 153 156
e 153 183
e 153 184
e 153 202
e 153 209
e 153 210
e 154 155
e 154 156
e 154 183
e 154 184
e 154 202
e 154 209
e 154 210
e 155 156
e 155 183
e 155 184
e 155 202
e 155 209
e 155 210
e 156 183
e 156 184
e 156 202
e 156 209
e 156 210
e 157 158
e 157 185
e 157 208
e 157 212
e 157 214
e 158 186
e 158 208
e 158 212
e 158 214
e 159 160
e 159 161
e 159 162
e 159 163
e 159 175
e 159 187
e 159 190
e 159 211
e 160 161
e 160 162
e 160 177
e 160 187
e 160 196
e 160 211
e 161 162
e 161 165
e 161 178
e 161 180
e 161 187
e 161 192
e 161 197
e 161 202
e 161 211
e 162 166
e 162 179
e 162 181
e 162 187
e 162 189
e 162 198
e 162 211
e 163 164
e 163 165
e 163 166
e 163 175
e 163 188
e 163 190
e 163 203
e 164 165
e 164 166
e 164 176
e 164 188
e 164 191
e 164 195
e 164 203
e 165 166
e 165 178
e 165 180
e 165 188
e 165 192
e 165 197
e 165 202
e 165 203
e 166 179
e 166 181
e 166 188
e 166 189
e 166 198
e 166 203
e 167 171
e 167 185
e 167 186
e 167 199
e 167 211
e 167 217
e 168 169
e 168 170
e 168 172
e 168 189
e 168 204
e 168 212
e 168 213
e 169 170
e 169 183
e 169 189
e 169 204
e 169 212
e 169 213
e 170 173
e 170 184
e 170 189
e 170 204
e 170 212
e 170 213
e 171 185
e 171 186
e 171 199
e 171 211
e 171 217
e 172 173
e 172 190
e 172 191
e 172 192
e 172 205
e 172 206
e 172 214
e 172 215
e 173 184
e 173 190
e 173 191
e 173 192
e 173 205
e 173 206
e 173 214
e 173 215
e 174 182
e 174 203
e 174 213
e 174 215
e 174 216
e 175 176
e 175 177
e 175 178
e 175 179
e 175 190
e 175 193
e 175 194
e 176 177
e 176 178
e 176 179
e 176 191
e 176 193
e 176 194
e 176 195
e 177 178
e 177 179
e 177 193
e 177 194
e 177 196
e 178 179
e 178 180
e 178 192
e 178 193
e 178 194
e 178 197
e 178 202
e 179 181
e 179 189
e 179 193
e 179 194
e 179 198
e 180 181
e 180 192
e 180 197
e 180 200
e 180 201
e 180 202
e 180 208
e 181 189
e 181 198
e 181 200
e 181 201
e 181 208
e 182 203
e 182 213
e 182 215
e 182 216
e 183 184
e 183 202
e 183 209
e 183 210
e 184 202
e 184 209
e 184 210
e 185 186
e 185 199
e 185 211
e 185 217
e 186 199
e 186 211
e 186 217
e 187 188
e 187 200
e 187 204
e 187 205
e 187 211
e 188 200
e 188 203
e 188 204
e 188 205
e 189 198
e 189 204
e 189 212
e 189 213
e 190 191
e 190 192
e 190 205
e 190 206
e 190 214
e 190 215
e 191 192
e 191 195
e 191 205
e 191 206
e 191 214
e 191 215
e 192 197
e 192 202
e 192 205
e 192 206
e 192 214
e 192 215
e 193 194
e 193 206
e 193 209
e 194 201
e 194 207
e 194 210
e 195 196
e 195 197
e 195 198
e 195 207
e 195 216
e 195 217
e 196 197
e 196 198
e 196 207
e 196 216
e 196 217
e 197 198
e 197 202
e 197 207
e 197 216
e 197 217
e 198 207
e 198 216
e 198 217
e 199 211
e 199 217
e 200 201
e 200 204
e 200 205
e 200 208
e 201 207
e 201 208
e 201 210
e 202 209
e 202 210
e 203 213
e 203 215
e 203 216
e 204 205
e 204 212
e 204 213
e 205 206
e 205 214
e 205 215
e 206 209
e 206 214
e 206 215
e 207 210
e 207 216
e 207 217
e 208 212
e 208 214
e 209 210
e 211 217
e 212 213
e 212 214
e 213 215
e 213 216
e 214 215
e 215 216
e 216 217
